(set-logic QF_UF)
(declare-fun A0 () Bool)
(declare-fun A1 () Bool)
(declare-fun A2 () Bool)
(declare-fun A3 () Bool)
(declare-fun A4 () Bool)
(declare-fun A5 () Bool)
(declare-fun A6 () Bool)
(declare-fun A7 () Bool)
(declare-fun A8 () Bool)
(declare-fun A9 () Bool)
(declare-fun A10 () Bool)
(declare-fun A11 () Bool)
(declare-fun A12 () Bool)
(declare-fun A13 () Bool)
(declare-fun A14 () Bool)
(declare-fun A15 () Bool)
(declare-fun A16 () Bool)
(declare-fun A17 () Bool)
(declare-fun A18 () Bool)
(declare-fun A19 () Bool)
(declare-fun A20 () Bool)
(declare-fun A21 () Bool)
(declare-fun A22 () Bool)
(declare-fun A23 () Bool)
(declare-fun A24 () Bool)
(assert (let ((.def_0 (not A21))) (let ((.def_1 (or A22 .def_0))) (let ((.def_2 (not .def_1))) (let ((.def_3 (not A4))) (let ((.def_4 (and A7 .def_3))) (let ((.def_5 (not .def_4))) (let ((.def_6 (or .def_5 .def_2))) (let ((.def_7 (not A0))) (let ((.def_8 (and A23 .def_7))) (let ((.def_9 (not A20))) (let ((.def_10 (or .def_9 A12))) (let ((.def_11 (and .def_10 .def_8))) (let ((.def_12 (not .def_11))) (let ((.def_13 (= .def_12 .def_6))) (let ((.def_14 (not .def_13))) (let ((.def_15 (not A17))) (let ((.def_16 (and .def_15 .def_9))) (let ((.def_17 (not .def_16))) (let ((.def_18 (not A18))) (let ((.def_19 (not A14))) (let ((.def_20 (and .def_19 .def_18))) (let ((.def_21 (and .def_20 .def_17))) (let ((.def_22 (or A3 A14))) (let ((.def_23 (not .def_22))) (let ((.def_24 (and .def_0 A8))) (let ((.def_25 (not .def_24))) (let ((.def_26 (= .def_25 .def_23))) (let ((.def_27 (or .def_26 .def_21))) (let ((.def_28 (not .def_27))) (let ((.def_29 (or .def_28 .def_14))) (let ((.def_30 (not A15))) (let ((.def_31 (not A13))) (let ((.def_32 (= .def_31 .def_30))) (let ((.def_33 (and A0 A6))) (let ((.def_34 (or .def_33 .def_32))) (let ((.def_35 (or .def_19 .def_31))) (let ((.def_36 (or A24 A1))) (let ((.def_37 (and .def_36 .def_35))) (let ((.def_38 (not .def_37))) (let ((.def_39 (or .def_38 .def_34))) (let ((.def_40 (and .def_9 A14))) (let ((.def_41 (not .def_40))) (let ((.def_42 (not A11))) (let ((.def_43 (and A22 .def_42))) (let ((.def_44 (and .def_43 .def_41))) (let ((.def_45 (not A12))) (let ((.def_46 (and A20 .def_45))) (let ((.def_47 (not .def_46))) (let ((.def_48 (not A1))) (let ((.def_49 (or .def_48 A18))) (let ((.def_50 (or .def_49 .def_47))) (let ((.def_51 (or .def_50 .def_44))) (let ((.def_52 (not .def_51))) (let ((.def_53 (or .def_52 .def_39))) (let ((.def_54 (not .def_53))) (let ((.def_55 (and .def_54 .def_29))) (let ((.def_56 (not A2))) (let ((.def_57 (= .def_56 A12))) (let ((.def_58 (not A10))) (let ((.def_59 (and .def_58 .def_3))) (let ((.def_60 (not .def_59))) (let ((.def_61 (or .def_60 .def_57))) (let ((.def_62 (or A8 .def_18))) (let ((.def_63 (or A7 A19))) (let ((.def_64 (not .def_63))) (let ((.def_65 (and .def_64 .def_62))) (let ((.def_66 (not .def_65))) (let ((.def_67 (and .def_66 .def_61))) (let ((.def_68 (not .def_67))) (let ((.def_69 (not A19))) (let ((.def_70 (or .def_69 .def_56))) (let ((.def_71 (not .def_70))) (let ((.def_72 (and .def_56 A16))) (let ((.def_73 (and .def_72 .def_71))) (let ((.def_74 (not A22))) (let ((.def_75 (or .def_74 .def_58))) (let ((.def_76 (not .def_75))) (let ((.def_77 (not A23))) (let ((.def_78 (and A22 .def_77))) (let ((.def_79 (not .def_78))) (let ((.def_80 (and .def_79 .def_76))) (let ((.def_81 (not .def_80))) (let ((.def_82 (and .def_81 .def_73))) (let ((.def_83 (not .def_82))) (let ((.def_84 (or .def_83 .def_68))) (let ((.def_85 (not .def_84))) (let ((.def_86 (and .def_48 A8))) (let ((.def_87 (not .def_86))) (let ((.def_88 (= A2 .def_58))) (let ((.def_89 (and .def_88 .def_87))) (let ((.def_90 (not .def_89))) (let ((.def_91 (not A9))) (let ((.def_92 (or .def_91 A19))) (let ((.def_93 (not .def_92))) (let ((.def_94 (not A24))) (let ((.def_95 (or .def_94 A24))) (let ((.def_96 (= .def_95 .def_93))) (let ((.def_97 (and .def_96 .def_90))) (let ((.def_98 (or .def_56 A1))) (let ((.def_99 (not .def_98))) (let ((.def_100 (not A8))) (let ((.def_101 (= A6 .def_100))) (let ((.def_102 (or .def_101 .def_99))) (let ((.def_103 (not .def_102))) (let ((.def_104 (= A4 .def_18))) (let ((.def_105 (not .def_104))) (let ((.def_106 (or A21 A3))) (let ((.def_107 (or .def_106 .def_105))) (let ((.def_108 (and .def_107 .def_103))) (let ((.def_109 (not .def_108))) (let ((.def_110 (or .def_109 .def_97))) (let ((.def_111 (not .def_110))) (let ((.def_112 (or .def_111 .def_85))) (let ((.def_113 (or .def_112 .def_55))) (let ((.def_114 (not .def_113))) (let ((.def_115 (or .def_30 A3))) (let ((.def_116 (not .def_115))) (let ((.def_117 (and .def_19 .def_30))) (let ((.def_118 (not .def_117))) (let ((.def_119 (or .def_118 .def_116))) (let ((.def_120 (not .def_119))) (let ((.def_121 (and .def_7 A18))) (let ((.def_122 (not .def_121))) (let ((.def_123 (or A20 .def_94))) (let ((.def_124 (not .def_123))) (let ((.def_125 (and .def_124 .def_122))) (let ((.def_126 (not .def_125))) (let ((.def_127 (and .def_126 .def_120))) (let ((.def_128 (and A20 A20))) (let ((.def_129 (not .def_128))) (let ((.def_130 (or A3 A20))) (let ((.def_131 (not .def_130))) (let ((.def_132 (or .def_131 .def_129))) (let ((.def_133 (not .def_132))) (let ((.def_134 (not A16))) (let ((.def_135 (or .def_134 .def_7))) (let ((.def_136 (not .def_135))) (let ((.def_137 (not A6))) (let ((.def_138 (and .def_69 .def_137))) (let ((.def_139 (and .def_138 .def_136))) (let ((.def_140 (or .def_139 .def_133))) (let ((.def_141 (not .def_140))) (let ((.def_142 (or .def_141 .def_127))) (let ((.def_143 (not .def_142))) (let ((.def_144 (or A15 .def_45))) (let ((.def_145 (not .def_144))) (let ((.def_146 (or .def_137 .def_94))) (let ((.def_147 (or .def_146 .def_145))) (let ((.def_148 (not .def_147))) (let ((.def_149 (or A19 .def_18))) (let ((.def_150 (not A3))) (let ((.def_151 (or .def_150 A11))) (let ((.def_152 (or .def_151 .def_149))) (let ((.def_153 (not .def_152))) (let ((.def_154 (or .def_153 .def_148))) (let ((.def_155 (not .def_154))) (let ((.def_156 (or A13 .def_30))) (let ((.def_157 (= A3 .def_150))) (let ((.def_158 (not .def_157))) (let ((.def_159 (or .def_158 .def_156))) (let ((.def_160 (not .def_159))) (let ((.def_161 (or .def_15 .def_150))) (let ((.def_162 (or A20 A21))) (let ((.def_163 (not .def_162))) (let ((.def_164 (and .def_163 .def_161))) (let ((.def_165 (not .def_164))) (let ((.def_166 (or .def_165 .def_160))) (let ((.def_167 (or .def_166 .def_155))) (let ((.def_168 (not .def_167))) (let ((.def_169 (or .def_168 .def_143))) (let ((.def_170 (not .def_169))) (let ((.def_171 (and .def_56 .def_19))) (let ((.def_172 (not .def_171))) (let ((.def_173 (not A5))) (let ((.def_174 (and .def_173 A21))) (let ((.def_175 (or .def_174 .def_172))) (let ((.def_176 (and A6 .def_56))) (let ((.def_177 (not .def_176))) (let ((.def_178 (and A18 A4))) (let ((.def_179 (or .def_178 .def_177))) (let ((.def_180 (and .def_179 .def_175))) (let ((.def_181 (and .def_74 .def_134))) (let ((.def_182 (and .def_15 .def_48))) (let ((.def_183 (and .def_182 .def_181))) (let ((.def_184 (not .def_183))) (let ((.def_185 (or A8 .def_150))) (let ((.def_186 (and A1 .def_100))) (let ((.def_187 (not .def_186))) (let ((.def_188 (and .def_187 .def_185))) (let ((.def_189 (not .def_188))) (let ((.def_190 (= .def_189 .def_184))) (let ((.def_191 (and .def_190 .def_180))) (let ((.def_192 (or A21 A12))) (let ((.def_193 (not .def_192))) (let ((.def_194 (and .def_15 .def_3))) (let ((.def_195 (not .def_194))) (let ((.def_196 (and .def_195 .def_193))) (let ((.def_197 (or A3 A10))) (let ((.def_198 (or .def_45 .def_94))) (let ((.def_199 (not .def_198))) (let ((.def_200 (or .def_199 .def_197))) (let ((.def_201 (and .def_200 .def_196))) (let ((.def_202 (or .def_15 .def_91))) (let ((.def_203 (not .def_202))) (let ((.def_204 (not A7))) (let ((.def_205 (= .def_204 A6))) (let ((.def_206 (not .def_205))) (let ((.def_207 (and .def_206 .def_203))) (let ((.def_208 (not .def_207))) (let ((.def_209 (or A21 A4))) (let ((.def_210 (not .def_209))) (let ((.def_211 (and .def_19 .def_42))) (let ((.def_212 (and .def_211 .def_210))) (let ((.def_213 (not .def_212))) (let ((.def_214 (and .def_213 .def_208))) (let ((.def_215 (and .def_214 .def_201))) (let ((.def_216 (and .def_215 .def_191))) (let ((.def_217 (or .def_216 .def_170))) (let ((.def_218 (not .def_217))) (let ((.def_219 (and .def_218 .def_114))) (let ((.def_220 (not .def_219))) (let ((.def_221 (or .def_31 .def_3))) (let ((.def_222 (or .def_137 .def_19))) (let ((.def_223 (not .def_222))) (let ((.def_224 (and .def_223 .def_221))) (let ((.def_225 (not .def_224))) (let ((.def_226 (and .def_48 A3))) (let ((.def_227 (not .def_226))) (let ((.def_228 (and .def_104 .def_227))) (let ((.def_229 (= .def_228 .def_225))) (let ((.def_230 (not .def_229))) (let ((.def_231 (or .def_134 .def_0))) (let ((.def_232 (not .def_231))) (let ((.def_233 (or A1 .def_0))) (let ((.def_234 (not .def_233))) (let ((.def_235 (or .def_234 .def_232))) (let ((.def_236 (not .def_235))) (let ((.def_237 (and .def_31 A17))) (let ((.def_238 (or A7 A0))) (let ((.def_239 (not .def_238))) (let ((.def_240 (or .def_239 .def_237))) (let ((.def_241 (not .def_240))) (let ((.def_242 (and .def_241 .def_236))) (let ((.def_243 (and .def_242 .def_230))) (let ((.def_244 (not .def_243))) (let ((.def_245 (or .def_137 .def_100))) (let ((.def_246 (not .def_245))) (let ((.def_247 (or A9 .def_134))) (let ((.def_248 (not .def_247))) (let ((.def_249 (and .def_248 .def_246))) (let ((.def_250 (not .def_249))) (let ((.def_251 (and .def_134 A14))) (let ((.def_252 (or .def_15 A2))) (let ((.def_253 (or .def_252 .def_251))) (let ((.def_254 (not .def_253))) (let ((.def_255 (or .def_254 .def_250))) (let ((.def_256 (and .def_48 A2))) (let ((.def_257 (and .def_45 A24))) (let ((.def_258 (not .def_257))) (let ((.def_259 (or .def_258 .def_256))) (let ((.def_260 (and .def_150 A16))) (let ((.def_261 (or A3 A2))) (let ((.def_262 (and .def_261 .def_260))) (let ((.def_263 (not .def_262))) (let ((.def_264 (and .def_263 .def_259))) (let ((.def_265 (= .def_264 .def_255))) (let ((.def_266 (and .def_265 .def_244))) (let ((.def_267 (or .def_56 A9))) (let ((.def_268 (not .def_267))) (let ((.def_269 (= .def_0 A18))) (let ((.def_270 (or .def_269 .def_268))) (let ((.def_271 (not .def_270))) (let ((.def_272 (= A21 .def_48))) (let ((.def_273 (not .def_272))) (let ((.def_274 (= .def_9 A18))) (let ((.def_275 (not .def_274))) (let ((.def_276 (and .def_275 .def_273))) (let ((.def_277 (and .def_276 .def_271))) (let ((.def_278 (not .def_277))) (let ((.def_279 (or A23 .def_137))) (let ((.def_280 (and .def_30 A5))) (let ((.def_281 (and .def_280 .def_279))) (let ((.def_282 (and .def_42 A15))) (let ((.def_283 (or .def_0 A19))) (let ((.def_284 (not .def_283))) (let ((.def_285 (or .def_284 .def_282))) (let ((.def_286 (not .def_285))) (let ((.def_287 (and .def_286 .def_281))) (let ((.def_288 (not .def_287))) (let ((.def_289 (or .def_288 .def_278))) (let ((.def_290 (and A3 .def_9))) (let ((.def_291 (not .def_290))) (let ((.def_292 (and .def_100 A18))) (let ((.def_293 (not .def_292))) (let ((.def_294 (and .def_293 .def_291))) (let ((.def_295 (not .def_294))) (let ((.def_296 (or A8 .def_204))) (let ((.def_297 (not .def_296))) (let ((.def_298 (or .def_15 A0))) (let ((.def_299 (not .def_298))) (let ((.def_300 (or .def_299 .def_297))) (let ((.def_301 (not .def_300))) (let ((.def_302 (and .def_301 .def_295))) (let ((.def_303 (not .def_302))) (let ((.def_304 (and A22 A3))) (let ((.def_305 (not .def_304))) (let ((.def_306 (or .def_197 .def_305))) (let ((.def_307 (or A18 .def_42))) (let ((.def_308 (not .def_307))) (let ((.def_309 (or A24 .def_173))) (let ((.def_310 (not .def_309))) (let ((.def_311 (and .def_310 .def_308))) (let ((.def_312 (not .def_311))) (let ((.def_313 (= .def_312 .def_306))) (let ((.def_314 (and .def_313 .def_303))) (let ((.def_315 (not .def_314))) (let ((.def_316 (and .def_315 .def_289))) (let ((.def_317 (not .def_316))) (let ((.def_318 (and .def_317 .def_266))) (let ((.def_319 (not .def_318))) (let ((.def_320 (or .def_48 .def_69))) (let ((.def_321 (and A22 A23))) (let ((.def_322 (and .def_321 .def_320))) (let ((.def_323 (and .def_42 .def_3))) (let ((.def_324 (and .def_94 A22))) (let ((.def_325 (not .def_324))) (let ((.def_326 (or .def_325 .def_323))) (let ((.def_327 (or .def_326 .def_322))) (let ((.def_328 (or .def_134 A9))) (let ((.def_329 (or .def_3 .def_3))) (let ((.def_330 (or .def_329 .def_328))) (let ((.def_331 (or A18 A12))) (let ((.def_332 (and .def_77 A6))) (let ((.def_333 (or .def_332 .def_331))) (let ((.def_334 (or .def_333 .def_330))) (let ((.def_335 (= .def_334 .def_327))) (let ((.def_336 (not .def_335))) (let ((.def_337 (or .def_19 A3))) (let ((.def_338 (not .def_337))) (let ((.def_339 (and A5 .def_58))) (let ((.def_340 (not .def_339))) (let ((.def_341 (and .def_340 .def_338))) (let ((.def_342 (or A19 .def_3))) (let ((.def_343 (or A24 A12))) (let ((.def_344 (and .def_343 .def_342))) (let ((.def_345 (or .def_344 .def_341))) (let ((.def_346 (not .def_345))) (let ((.def_347 (and .def_15 .def_204))) (let ((.def_348 (not .def_347))) (let ((.def_349 (and .def_56 .def_94))) (let ((.def_350 (or .def_349 .def_348))) (let ((.def_351 (not .def_350))) (let ((.def_352 (or .def_134 .def_31))) (let ((.def_353 (not .def_352))) (let ((.def_354 (or .def_100 .def_56))) (let ((.def_355 (not .def_354))) (let ((.def_356 (or .def_355 .def_353))) (let ((.def_357 (not .def_356))) (let ((.def_358 (or .def_357 .def_351))) (let ((.def_359 (not .def_358))) (let ((.def_360 (and .def_359 .def_346))) (let ((.def_361 (and .def_360 .def_336))) (let ((.def_362 (not .def_361))) (let ((.def_363 (or A16 .def_42))) (let ((.def_364 (and A14 A13))) (let ((.def_365 (and .def_364 .def_363))) (let ((.def_366 (not .def_365))) (let ((.def_367 (= A10 .def_94))) (let ((.def_368 (or .def_290 .def_367))) (let ((.def_369 (not .def_368))) (let ((.def_370 (or .def_369 .def_366))) (let ((.def_371 (or A12 .def_19))) (let ((.def_372 (or .def_42 .def_56))) (let ((.def_373 (not .def_372))) (let ((.def_374 (and .def_373 .def_371))) (let ((.def_375 (and A19 A16))) (let ((.def_376 (not .def_375))) (let ((.def_377 (and A8 .def_19))) (let ((.def_378 (and .def_377 .def_376))) (let ((.def_379 (not .def_378))) (let ((.def_380 (and .def_379 .def_374))) (let ((.def_381 (not .def_380))) (let ((.def_382 (or .def_381 .def_370))) (let ((.def_383 (and A16 .def_137))) (let ((.def_384 (not .def_383))) (let ((.def_385 (and A3 .def_0))) (let ((.def_386 (or .def_385 .def_384))) (let ((.def_387 (and .def_18 A24))) (let ((.def_388 (not .def_387))) (let ((.def_389 (= A2 A12))) (let ((.def_390 (not .def_389))) (let ((.def_391 (and .def_390 .def_388))) (let ((.def_392 (not .def_391))) (let ((.def_393 (and .def_392 .def_386))) (let ((.def_394 (or .def_150 A18))) (let ((.def_395 (or .def_18 .def_48))) (let ((.def_396 (and .def_395 .def_394))) (let ((.def_397 (and A23 A17))) (let ((.def_398 (not .def_397))) (let ((.def_399 (or A21 A1))) (let ((.def_400 (or .def_399 .def_398))) (let ((.def_401 (= .def_400 .def_396))) (let ((.def_402 (not .def_401))) (let ((.def_403 (or .def_402 .def_393))) (let ((.def_404 (not .def_403))) (let ((.def_405 (or .def_404 .def_382))) (let ((.def_406 (and .def_405 .def_362))) (let ((.def_407 (and .def_406 .def_319))) (let ((.def_408 (and .def_407 .def_220))) (let ((.def_409 (not .def_408))) .def_409)))))))))))))))))))))))))))))))))))))))))))))))))))))))))))))))))))))))))))))))))))))))))))))))))))))))))))))))))))))))))))))))))))))))))))))))))))))))))))))))))))))))))))))))))))))))))))))))))))))))))))))))))))))))))))))))))))))))))))))))))))))))))))))))))))))))))))))))))))))))))))))))))))))))))))))))))))))))))))))))))))))))))))))))))))))))))))))))))))))))))))))))))))))))))))))))))))))))))))))))))))))))))))
(check-sat)
